1 1458
2 1179
8 1122
18 1116
21 1085
25 1075
36 1039
410 1016
965 1011



1 1372
2 1251
3 1216
4 1192
6 1150
10 1120
11 1115
27 1102
43 1065
275 1049
409 1047
439 1046
896 1029



1 1418
2 1247
3 1206
4 1166
6 1133
16 1118
81 1104
104 1085
147 1065
234 1049
995 1027



1 1320
2 1252
3 1191
4 1188
7 1181
8 1122
32 1090
42 1079
79 1058
190 1042
765 1021



1 1280
2 1213
3 1181
6 1091
56 1071
79 1060
149 1047
872 1045



